RT is False
Default write of storage_offers_DA.csv just to have a file (but constraint should be inactive)
Reading model...
...model read.
creating competitive generators file...
...competitive generators recorded.
Loading data...
.. day-ahead data read.
Compiling instance...
...instance created.
Creating Offer Mitigation (model will solve as dispatch if TRUE)...
NOTE: storage offers will not be mitigated
...storage offer mitigation file created
Converting model to MPEC...
...converted
NOTE: initial MIP solve with only storage competitive to get feasible solution
Solving...

Welcome to IBM(R) ILOG(R) CPLEX(R) Interactive Optimizer 12.9.0.0
  with Simplex, Mixed Integer & Barrier Optimizers
5725-A06 5725-A29 5724-Y48 5724-Y49 5724-Y54 5724-Y55 5655-Y21
Copyright IBM Corp. 1988, 2019.  All Rights Reserved.

Type 'help' for a list of available commands.
Type 'help' followed by a command name for more
information on commands.

CPLEX> Logfile 'cplex.log' closed.
Logfile 'C:\Users\Luke\Desktop\competitiveMPEC_12.6\logs\tmp3fof9nh5.cplex.log' open.
CPLEX> New value for parallel optimization mode: -1
CPLEX> New value for mixed integer optimality gap tolerance: 0.01
CPLEX> New value for integrality tolerance: 1e-09
CPLEX> New value for feasibility tolerance: 0.01
CPLEX> New value for deterministic time limit in ticks: 175000
CPLEX> Problem 'C:\Users\Luke\Desktop\competitiveMPEC_12.6\logs\tmpzyzuw5nn.pyomo.lp' read.
Read time = 0.19 sec. (13.86 ticks)
CPLEX> Problem name         : C:\Users\Luke\Desktop\competitiveMPEC_12.6\logs\tmpzyzuw5nn.pyomo.lp
Objective sense      : Maximize
Variables            :   53321  [Nneg: 1,  Box: 21806,  Free: 4416,
                                 Binary: 27098]
Objective nonzeros   :    8952
Linear constraints   :  122164  [Less: 40983,  Greater: 58612,  Equal: 22569]
  Nonzeros           :  288477
  RHS nonzeros       :   66954

Variables            : Min LB: -5000.000        Max UB: 1000000.       
Objective nonzeros   : Min   : 0.1000000        Max   : 806.0000       
Linear constraints   :
  Nonzeros           : Min   : 0.1000000        Max   : 1000000.       
  RHS nonzeros       : Min   : 0.1000000        Max   : 1000000.       
CPLEX> CPXPARAM_Parallel                                -1
CPXPARAM_Simplex_Tolerances_Feasibility          0.01
CPXPARAM_DetTimeLimit                            175000
CPXPARAM_MIP_Tolerances_MIPGap                   0.01
CPXPARAM_MIP_Tolerances_Integrality              1.0000000000000001e-09
Tried aggregator 3 times.
MIP Presolve eliminated 88234 rows and 19072 columns.
MIP Presolve added 3349 rows and 0 columns.
MIP Presolve modified 24468 coefficients.
Aggregator did 12843 substitutions.
Reduced MIP has 24436 rows, 20832 columns, and 68518 nonzeros.
Reduced MIP has 8231 binaries, 0 generals, 0 SOSs, and 0 indicators.
Presolve time = 0.24 sec. (173.97 ticks)
Probing fixed 414 vars, tightened 2850 bounds.
Probing time = 1.31 sec. (891.63 ticks)
Tried aggregator 2 times.
MIP Presolve eliminated 925 rows and 831 columns.
MIP Presolve modified 2162 coefficients.
Aggregator did 61 substitutions.
Reduced MIP has 23450 rows, 19940 columns, and 65649 nonzeros.
Reduced MIP has 7816 binaries, 0 generals, 0 SOSs, and 0 indicators.
Presolve time = 0.09 sec. (69.88 ticks)
Probing time = 0.03 sec. (15.63 ticks)
Clique table members: 6218.
MIP emphasis: balance optimality and feasibility.
MIP search method: dynamic search.
Parallel mode: opportunistic, using up to 24 threads.
Root relaxation solution time = 0.39 sec. (310.23 ticks)

        Nodes                                         Cuts/
   Node  Left     Objective  IInf  Best Integer    Best Bound    ItCnt     Gap

      0     0     2174.7093  1648                   2174.7093     6680         
      0     0     2126.8538   564                   Cuts: 601     6954         
      0     0     2111.1653   480                   Cuts: 291     7077         
      0     0     2109.0781   401                   Cuts: 198     7167         
      0     0     2109.0781   369                    Cuts: 74     7212         
      0     0     2109.0781   352                    Cuts: 43     7233         
      0     0     2109.0781   343                    Cuts: 29     7242         
      0     0     2109.0781   336                    Cuts: 27     7249         
      0     0     2109.0781   332                    Cuts: 12     7253         
      0     0     2109.0781   332                     Cuts: 8     7253         
      0     2     2109.0781   332                 Flowcuts: 2     7253         
Elapsed time = 8.33 sec. (5767.81 ticks, tree = 0.02 MB, solutions = 0)
    397   291     1880.1280   298                   2009.9144     8128         
    932   822     1856.0060   296                   2009.9144     9583         
   1714  1328     1911.5340   271                   2009.9144    10194         
   2683  2041     1676.5698   262                   2009.9144    11872         
   3482  2725     1911.5340   256                   2009.9144    12352         
   4332  3447     1880.1280   245                   2009.9144    12778         
   5053  4355     1676.5698   238                   2009.9144    12990         
   5851  4636     1841.9216   186                   2009.9144    13124         
*  6362+  898                         1880.1280     2009.9144             6.90%

Clique cuts applied:  12
Cover cuts applied:  9
Implied bound cuts applied:  30
Flow cuts applied:  195
Mixed integer rounding cuts applied:  86
Zero-half cuts applied:  1
Gomory fractional cuts applied:  53

Root node processing (before b&c):
  Real time             =    7.84 sec. (5728.72 ticks)
Parallel b&c, 24 threads:
  Real time             =    8.86 sec. (3898.53 ticks)
  Sync time (average)   =    0.14 sec.
  Wait time (average)   =    0.00 sec.
                          ------------
Total (root+branch&cut) =   16.70 sec. (9627.25 ticks)

Solution pool: 11 solutions saved.

MIP - Integer optimal, tolerance (0.01/1e-06):  Objective =  1.9115339793e+03
Current MIP best bound =  1.9190727695e+03 (gap = 7.53879, 0.39%)
Solution time =   16.72 sec.  Iterations = 19828  Nodes = 8053 (1348)
Deterministic time = 9627.40 ticks  (575.84 ticks/sec)

CPLEX> Incumbent solution written to file 'C:\Users\Luke\Desktop\competitiveMPEC_12.6\logs\tmp66o12isz.cplex.sol'.
CPLEX> NOTE: no warmstart specified for MIP iteration, default behavior is true
NOTE: resolving with all competitive generators using storage-only solution to warmstart
Solving...

Welcome to IBM(R) ILOG(R) CPLEX(R) Interactive Optimizer 12.9.0.0
  with Simplex, Mixed Integer & Barrier Optimizers
5725-A06 5725-A29 5724-Y48 5724-Y49 5724-Y54 5724-Y55 5655-Y21
Copyright IBM Corp. 1988, 2019.  All Rights Reserved.

Type 'help' for a list of available commands.
Type 'help' followed by a command name for more
information on commands.

CPLEX> Logfile 'cplex.log' closed.
Logfile 'C:\Users\Luke\Desktop\competitiveMPEC_12.6\logs\tmp_05e3ihe.cplex.log' open.
CPLEX> New value for parallel optimization mode: -1
CPLEX> New value for mixed integer optimality gap tolerance: 0.01
CPLEX> New value for integrality tolerance: 1e-09
CPLEX> New value for feasibility tolerance: 0.01
CPLEX> New value for deterministic time limit in ticks: 175000
CPLEX> Problem 'C:\Users\Luke\Desktop\competitiveMPEC_12.6\logs\tmpr2r_4h9c.pyomo.lp' read.
Read time = 0.19 sec. (13.88 ticks)
CPLEX> MIP start file 'C:\Users\Luke\Desktop\competitiveMPEC_12.6\logs\tmpry37c_yr.cplex.mst' read.
CPLEX> Problem name         : C:\Users\Luke\Desktop\competitiveMPEC_12.6\logs\tmpr2r_4h9c.pyomo.lp
Objective sense      : Maximize
Variables            :   54041  [Nneg: 1,  Box: 22526,  Free: 4416,
                                 Binary: 27098]
Objective nonzeros   :    9650
Linear constraints   :  122164  [Less: 40983,  Greater: 58612,  Equal: 22569]
  Nonzeros           :  288477
  RHS nonzeros       :   66954

Variables            : Min LB: -5000.000        Max UB: 1000000.       
Objective nonzeros   : Min   : 0.1000000        Max   : 757.9000       
Linear constraints   :
  Nonzeros           : Min   : 0.1000000        Max   : 1000000.       
  RHS nonzeros       : Min   : 0.1000000        Max   : 1000000.       
CPLEX> CPXPARAM_Parallel                                -1
CPXPARAM_Simplex_Tolerances_Feasibility          0.01
CPXPARAM_DetTimeLimit                            175000
CPXPARAM_MIP_Tolerances_MIPGap                   0.01
CPXPARAM_MIP_Tolerances_Integrality              1.0000000000000001e-09
Warning:  No solution found from 1 MIP starts.
Retaining values of one MIP start for possible repair.
Tried aggregator 3 times.
MIP Presolve eliminated 88234 rows and 19792 columns.
MIP Presolve added 3349 rows and 0 columns.
MIP Presolve modified 24468 coefficients.
Aggregator did 12843 substitutions.
Reduced MIP has 24436 rows, 20832 columns, and 68518 nonzeros.
Reduced MIP has 8231 binaries, 0 generals, 0 SOSs, and 0 indicators.
Presolve time = 0.23 sec. (174.34 ticks)
Probing fixed 414 vars, tightened 2850 bounds.
Probing time = 1.28 sec. (891.63 ticks)
Tried aggregator 2 times.
MIP Presolve eliminated 925 rows and 831 columns.
MIP Presolve modified 2162 coefficients.
Aggregator did 61 substitutions.
Reduced MIP has 23450 rows, 19940 columns, and 65649 nonzeros.
Reduced MIP has 7816 binaries, 0 generals, 0 SOSs, and 0 indicators.
Presolve time = 0.11 sec. (69.88 ticks)
Probing time = 0.03 sec. (15.63 ticks)
Clique table members: 6218.
MIP emphasis: balance optimality and feasibility.
MIP search method: dynamic search.
Parallel mode: opportunistic, using up to 24 threads.
Root relaxation solution time = 0.28 sec. (257.58 ticks)

        Nodes                                         Cuts/
   Node  Left     Objective  IInf  Best Integer    Best Bound    ItCnt     Gap

      0     0   107664.8258  1697                 107664.8258     6448         
      0     0   105418.3381   555                   Cuts: 819     6815         
      0     0   104958.1256   471                   Cuts: 405     6993         
      0     0   104775.7023   418                   Cuts: 243     7139         
      0     0   104752.7654   398                   Cuts: 112     7194         
      0     0   104745.1289   385                    Cuts: 70     7216         
      0     0   104743.9975   380                    Cuts: 49     7229         
      0     0   104742.2123   376                    Cuts: 40     7238         
Repair heuristic found nothing.
      0    21    75548.0242   293                    Cuts: 32     7757         
Elapsed time = 9.69 sec. (6338.30 ticks, tree = 0.02 MB, solutions = 0)
    266    51    62812.9643   261                  99608.6395    11909         
    627   241    50019.4455   285                  79438.0859    15859         
   1084   721    47184.9489   223                  79438.0859    21834         
   1613   962    42012.2895   270                  79438.0859    23872         
   2186  1557    45942.8540   200                  79438.0859    28283         
   2851  1950    46264.9140   169                  79438.0859    29854         
   3441  2597    45153.5320   188                  79438.0859    32100         
   4049  3499    53507.5891   259                  79438.0859    33984         
   4669  3999    infeasible                        79438.0859    38658         
*  6506  4823      integral     0    46264.9140    79438.0859    41920   71.70%
Elapsed time = 17.41 sec. (9055.09 ticks, tree = 40.00 MB, solutions = 2)
   7493  2799        cutoff          46264.9140    54967.8609    62685   18.81%
   8537   574    50051.3849    97    46264.9140    53686.7039    68347   16.04%
   9813  1399        cutoff          46264.9140    53686.7039    74907   16.04%
  12209   970    51600.6923    83    51447.0999    53286.5224    83611    3.58%
  14416  2538        cutoff          51447.0999    53248.0562    99133    3.50%
  15181  3474        cutoff          51447.0999    53248.0562   103829    3.50%
  16377  3707    51811.9554    49    51447.0999    53248.0562   105412    3.50%
  18650  4410    52505.0936    29    52116.8085    53248.0562   109854    2.17%
  20508  4717    52652.9473    83    52116.8085    53021.0210   111885    1.73%
  21649  2235    52379.6163    74    52116.8085    53018.6145   124117    1.73%
Elapsed time = 48.83 sec. (23072.48 ticks, tree = 26.86 MB, solutions = 5)
  22268  2025    52506.4987     4    52116.8085    53018.6145   121727    1.73%
* 22637  2061      integral     0    52598.5183    53018.6145   121907    0.80%
  23015  1740    52247.8109    69    52598.5183    53018.6145   117313    0.80%
  23274  2645    52557.2600    51    52598.5183    53018.6145   127679    0.80%
  23654  2234    52394.6679    35    52598.5183    53018.6145   123486    0.80%
  23825  2288    52323.4269    14    52598.5183    53018.6145   124733    0.80%
  23973  2471    52180.9270    78    52598.5183    53018.6145   126938    0.80%
* 24009  2224      integral     0    52657.3285    53018.6145   124750    0.69%
  24022  2418        cutoff          52657.3285    53018.6145   126395    0.69%

GUB cover cuts applied:  1
Clique cuts applied:  12
Cover cuts applied:  22
Implied bound cuts applied:  10
Flow cuts applied:  365
Mixed integer rounding cuts applied:  47
Zero-half cuts applied:  1
Gomory fractional cuts applied:  77

Root node processing (before b&c):
  Real time             =    9.14 sec. (6307.00 ticks)
Parallel b&c, 24 threads:
  Real time             =   44.67 sec. (25234.24 ticks)
  Sync time (average)   =    0.85 sec.
  Wait time (average)   =    0.08 sec.
                          ------------
Total (root+branch&cut) =   53.81 sec. (31541.24 ticks)

Solution pool: 8 solutions saved.

MIP - Integer optimal, tolerance (0.01/1e-06):  Objective =  5.2657328538e+04
Current MIP best bound =  5.3011589997e+04 (gap = 354.261, 0.67%)
Solution time =   53.81 sec.  Iterations = 144326  Nodes = 24035 (1305)
Deterministic time = 31541.39 ticks  (586.14 ticks/sec)

CPLEX> Incumbent solution written to file 'C:\Users\Luke\Desktop\competitiveMPEC_12.6\logs\tmpo3oo99bc.cplex.sol'.
CPLEX> Exporting results... 
